RT is False
Default write of storage_offers_DA.csv just to have a file (but constraint should be inactive)
Reading model...
...model read.
creating competitive generators file...
...competitive generators recorded.
Loading data...
.. day-ahead data with real-time VRE data read.
Compiling instance...
...instance created.
Creating Offer Mitigation (model will solve as dispatch if TRUE)...
Solving...

Welcome to IBM(R) ILOG(R) CPLEX(R) Interactive Optimizer 12.9.0.0
  with Simplex, Mixed Integer & Barrier Optimizers
5725-A06 5725-A29 5724-Y48 5724-Y49 5724-Y54 5724-Y55 5655-Y21
Copyright IBM Corp. 1988, 2019.  All Rights Reserved.

Type 'help' for a list of available commands.
Type 'help' followed by a command name for more
information on commands.

CPLEX> Logfile 'cplex.log' closed.
Logfile 'C:\Users\Luke\Desktop\test919\logs\tmpbg71txxf.cplex.log' open.
CPLEX> New value for parallel optimization mode: -1
CPLEX> New value for mixed integer optimality gap tolerance: 0.01
CPLEX> New value for integrality tolerance: 1e-09
CPLEX> New value for feasibility tolerance: 0.01
CPLEX> New value for deterministic time limit in ticks: 75000
CPLEX> Problem 'C:\Users\Luke\Desktop\test919\logs\tmpq19zgk77.pyomo.lp' read.
Read time = 0.05 sec. (3.04 ticks)
CPLEX> Problem name         : C:\Users\Luke\Desktop\test919\logs\tmpq19zgk77.pyomo.lp
Objective sense      : Minimize
Variables            :   26081  [Nneg: 1,  Box: 21616,  Free: 4464]
Objective nonzeros   :    2496
Linear constraints   :   27515  [Less: 14006,  Greater: 4416,  Equal: 9093]
  Nonzeros           :   89219
  RHS nonzeros       :   12264

Variables            : Min LB: -5000.000        Max UB: 1000000.       
Objective nonzeros   : Min   : 15.73158         Max   : 124.0997       
Linear constraints   :
  Nonzeros           : Min   : 0.8500000        Max   : 3000.000       
  RHS nonzeros       : Min   : 0.008333333      Max   : 5000.000       
CPLEX> CPXPARAM_Parallel                                -1
CPXPARAM_Simplex_Tolerances_Feasibility          0.01
CPXPARAM_DetTimeLimit                            75000
CPXPARAM_MIP_Tolerances_MIPGap                   0.01
CPXPARAM_MIP_Tolerances_Integrality              1.0000000000000001e-09
Parallel mode: opportunistic, using up to 12 threads for concurrent optimization.
Tried aggregator 1 time.
LP Presolve eliminated 21377 rows and 15487 columns.
Aggregator did 752 substitutions.
Reduced LP has 5386 rows, 9842 columns, and 31776 nonzeros.
Presolve time = 0.05 sec. (30.21 ticks)
Symmetry aggregator did 5563 additional substitutions.

Iteration log . . .
Iteration:     1   Dual objective     =             0.000000
Perturbation started.
Iteration:   101   Dual objective     =             0.000000
Iteration:   343   Dual objective     =             1.315923
Iteration:   606   Dual objective     =             1.887802
Iteration:   871   Dual objective     =             2.017479
Iteration:  1084   Dual objective     =             2.137518
Iteration:  1357   Dual objective     =             2.183599
Iteration:  1611   Dual objective     =             2.218261
Iteration:  1839   Dual objective     =             2.239656
Iteration:  2049   Dual objective     =             2.266405
Iteration:  2249   Dual objective     =             2.278233
Iteration:  2446   Dual objective     =         20270.056727
Iteration:  2759   Dual objective     =         25085.952216
Iteration:  3119   Dual objective     =         26024.047111
Removing perturbation.
Dual superbasis not built.
Using devex.

Primal simplex solved model.


Primal simplex - Optimal:  Objective =  2.6021747557e+04
Solution time =    0.11 sec.  Iterations = 1744 (1162)
Deterministic time = 79.50 ticks  (722.69 ticks/sec)

CPLEX> Solution written to file 'C:\Users\Luke\Desktop\test919\logs\tmpi793djle.cplex.sol'.
CPLEX> Exporting results... 
...storage offer mitigation file created
Converting model to MPEC...
...converted
NOTE: initial MIP solve with only storage competitive to get feasible solution
Solving...

Welcome to IBM(R) ILOG(R) CPLEX(R) Interactive Optimizer 12.9.0.0
  with Simplex, Mixed Integer & Barrier Optimizers
5725-A06 5725-A29 5724-Y48 5724-Y49 5724-Y54 5724-Y55 5655-Y21
Copyright IBM Corp. 1988, 2019.  All Rights Reserved.

Type 'help' for a list of available commands.
Type 'help' followed by a command name for more
information on commands.

CPLEX> Logfile 'cplex.log' closed.
Logfile 'C:\Users\Luke\Desktop\test919\logs\tmpc5iq82g3.cplex.log' open.
CPLEX> New value for parallel optimization mode: -1
CPLEX> New value for mixed integer optimality gap tolerance: 0.01
CPLEX> New value for integrality tolerance: 1e-09
CPLEX> New value for feasibility tolerance: 0.01
CPLEX> New value for deterministic time limit in ticks: 75000
CPLEX> Problem 'C:\Users\Luke\Desktop\test919\logs\tmp_arols0m.pyomo.lp' read.
Read time = 0.20 sec. (14.78 ticks)
CPLEX> Problem name         : C:\Users\Luke\Desktop\test919\logs\tmp_arols0m.pyomo.lp
Objective sense      : Maximize
Variables            :   53805  [Nneg: 1,  Box: 22000,  Free: 4464,
                                 Binary: 27340]
Objective nonzeros   :    9022
Linear constraints   :  123205  [Less: 41346,  Greater: 59096,  Equal: 22763]
  Nonzeros           :  291746
  RHS nonzeros       :   67414

Variables            : Min LB: -5000.000        Max UB: 1000000.       
Objective nonzeros   : Min   : 0.008333333      Max   : 2500.000       
Linear constraints   :
  Nonzeros           : Min   : 0.008333333      Max   : 1000000.       
  RHS nonzeros       : Min   : 0.008333333      Max   : 1000000.       
CPLEX> CPXPARAM_Parallel                                -1
CPXPARAM_Simplex_Tolerances_Feasibility          0.01
CPXPARAM_DetTimeLimit                            75000
CPXPARAM_MIP_Tolerances_MIPGap                   0.01
CPXPARAM_MIP_Tolerances_Integrality              1.0000000000000001e-09
Tried aggregator 3 times.
MIP Presolve eliminated 88706 rows and 19027 columns.
MIP Presolve added 3370 rows and 0 columns.
MIP Presolve modified 24824 coefficients.
Aggregator did 12988 substitutions.
Reduced MIP has 24881 rows, 21231 columns, and 70976 nonzeros.
Reduced MIP has 8393 binaries, 0 generals, 0 SOSs, and 0 indicators.
Presolve time = 0.24 sec. (173.63 ticks)
Probing fixed 387 vars, tightened 2863 bounds.
Probing time = 1.55 sec. (871.96 ticks)
Tried aggregator 2 times.
MIP Presolve eliminated 876 rows and 776 columns.
MIP Presolve modified 2206 coefficients.
Aggregator did 36 substitutions.
Reduced MIP has 23969 rows, 20419 columns, and 68340 nonzeros.
Reduced MIP has 8005 binaries, 0 generals, 0 SOSs, and 0 indicators.
Presolve time = 0.09 sec. (66.61 ticks)
Probing time = 0.03 sec. (16.20 ticks)
Clique table members: 6317.
MIP emphasis: balance optimality and feasibility.
MIP search method: dynamic search.
Parallel mode: opportunistic, using up to 12 threads.
Root relaxation solution time = 0.44 sec. (526.05 ticks)

        Nodes                                         Cuts/
   Node  Left     Objective  IInf  Best Integer    Best Bound    ItCnt     Gap

      0     0       24.9109   666                     24.9109     5888         
      0     0       24.9109   630                   Cuts: 546     6138         
      0     0       24.9109   517                   Cuts: 194     6272         
      0     0       24.9109   482                    Cuts: 83     6326         
      0     0       24.9109   460                    Cuts: 71     6367         
      0     0       24.9109   426                    Cuts: 61     6401         
      0     0       24.9109   408                    Cuts: 35     6420         
      0     0       24.9109   396                    Cuts: 39     6432         
      0     0       24.9109   384                    Cuts: 16     6443         
      0     0       24.9109   383                     Cuts: 7     6444         
      0     0       24.9109   383                     Cuts: 6     6444         
      0     6    infeasible                       Flowcuts: 1     6700         
Elapsed time = 11.51 sec. (6114.58 ticks, tree = 0.02 MB, solutions = 0)
    145    12       24.9109   360                     24.9109     7477         
    337   169       24.9109   342                     24.9109     8281         
    782   434       24.9109   319                     24.9109     9991         
    984   617       24.9109   306                     24.9109    10878         
    991   691       24.9109   295                     24.9109    11474         
   1076   711       24.9109   282                     24.9109    11821         
   1303   759       24.9109   263                     24.9109    12064         
   1568   805       24.9109   246                     24.9109    12153         
   1924  1025     -236.8264   280                     24.9109    12938         
   3489  2433    -1225.7722   199                     24.9109    15589         
Elapsed time = 26.61 sec. (9826.73 ticks, tree = 25.93 MB, solutions = 0)
*  4493+ 2437                         -237.3355       24.9109           110.50%
*  4666  2409      integral     0       24.9109       24.9109    16590    0.00%
   4808  2361        cutoff             24.9109       24.9109    16585    0.00%
   4850  3165    infeasible             24.9109       24.9109    16395    0.00%

Clique cuts applied:  1
Implied bound cuts applied:  8
Flow cuts applied:  403
Mixed integer rounding cuts applied:  18
Gomory fractional cuts applied:  31

Root node processing (before b&c):
  Real time             =   10.98 sec. (6097.74 ticks)
Parallel b&c, 12 threads:
  Real time             =   17.78 sec. (6886.37 ticks)
  Sync time (average)   =    0.38 sec.
  Wait time (average)   =    0.00 sec.
                          ------------
Total (root+branch&cut) =   28.76 sec. (12984.12 ticks)

Solution pool: 3 solutions saved.

MIP - Integer optimal solution:  Objective =  2.4910921384e+01
Solution time =   28.78 sec.  Iterations = 17397  Nodes = 4919
Deterministic time = 12984.27 ticks  (451.14 ticks/sec)

CPLEX> Incumbent solution written to file 'C:\Users\Luke\Desktop\test919\logs\tmpd8h0q5jr.cplex.sol'.
CPLEX> NOTE: no warmstart specified for MIP iteration, default behavior is true
NOTE: resolving with all competitive generators using storage-only solution to warmstart
Solving...

Welcome to IBM(R) ILOG(R) CPLEX(R) Interactive Optimizer 12.9.0.0
  with Simplex, Mixed Integer & Barrier Optimizers
5725-A06 5725-A29 5724-Y48 5724-Y49 5724-Y54 5724-Y55 5655-Y21
Copyright IBM Corp. 1988, 2019.  All Rights Reserved.

Type 'help' for a list of available commands.
Type 'help' followed by a command name for more
information on commands.

CPLEX> Logfile 'cplex.log' closed.
Logfile 'C:\Users\Luke\Desktop\test919\logs\tmpzta9qgl3.cplex.log' open.
CPLEX> New value for parallel optimization mode: -1
CPLEX> New value for mixed integer optimality gap tolerance: 0.01
CPLEX> New value for integrality tolerance: 1e-09
CPLEX> New value for feasibility tolerance: 0.01
CPLEX> New value for deterministic time limit in ticks: 75000
CPLEX> Problem 'C:\Users\Luke\Desktop\test919\logs\tmphqdfdg7p.pyomo.lp' read.
Read time = 0.20 sec. (14.81 ticks)
CPLEX> MIP start file 'C:\Users\Luke\Desktop\test919\logs\tmpa8y9q9dz.cplex.mst' read.
CPLEX> Problem name         : C:\Users\Luke\Desktop\test919\logs\tmphqdfdg7p.pyomo.lp
Objective sense      : Maximize
Variables            :   54525  [Nneg: 1,  Box: 22720,  Free: 4464,
                                 Binary: 27340]
Objective nonzeros   :    9718
Linear constraints   :  123205  [Less: 41346,  Greater: 59096,  Equal: 22763]
  Nonzeros           :  291746
  RHS nonzeros       :   67414

Variables            : Min LB: -5000.000        Max UB: 1000000.       
Objective nonzeros   : Min   : 0.008333333      Max   : 2500.000       
Linear constraints   :
  Nonzeros           : Min   : 0.008333333      Max   : 1000000.       
  RHS nonzeros       : Min   : 0.008333333      Max   : 1000000.       
CPLEX> CPXPARAM_Parallel                                -1
CPXPARAM_Simplex_Tolerances_Feasibility          0.01
CPXPARAM_DetTimeLimit                            75000
CPXPARAM_MIP_Tolerances_MIPGap                   0.01
CPXPARAM_MIP_Tolerances_Integrality              1.0000000000000001e-09
Warning:  No solution found from 1 MIP starts.
Retaining values of one MIP start for possible repair.
Tried aggregator 3 times.
MIP Presolve eliminated 88706 rows and 19747 columns.
MIP Presolve added 3370 rows and 0 columns.
MIP Presolve modified 24824 coefficients.
Aggregator did 12988 substitutions.
Reduced MIP has 24881 rows, 21231 columns, and 70976 nonzeros.
Reduced MIP has 8393 binaries, 0 generals, 0 SOSs, and 0 indicators.
Presolve time = 0.25 sec. (173.99 ticks)
Probing fixed 387 vars, tightened 2863 bounds.
Probing time = 1.50 sec. (871.96 ticks)
Tried aggregator 2 times.
MIP Presolve eliminated 876 rows and 776 columns.
MIP Presolve modified 2206 coefficients.
Aggregator did 36 substitutions.
Reduced MIP has 23969 rows, 20419 columns, and 68340 nonzeros.
Reduced MIP has 8005 binaries, 0 generals, 0 SOSs, and 0 indicators.
Presolve time = 0.09 sec. (66.62 ticks)
Probing time = 0.05 sec. (16.20 ticks)
Clique table members: 6317.
MIP emphasis: balance optimality and feasibility.
MIP search method: dynamic search.
Parallel mode: opportunistic, using up to 12 threads.
Root relaxation solution time = 0.39 sec. (291.85 ticks)

        Nodes                                         Cuts/
   Node  Left     Objective  IInf  Best Integer    Best Bound    ItCnt     Gap

      0     0   141635.6298  1710                 141635.6298     6574         
      0     0   136508.8354   762                   Cuts: 730     6994         
      0     0   134812.6306   626                   Cuts: 328     7180         
      0     0   132888.7632   559                   Cuts: 201     7303         
      0     0   132609.1981   550                   Cuts: 180     7365         
      0     0   132597.6612   514                   Cuts: 148     7408         
      0     0   132597.6612   494                   Cuts: 110     7425         
      0     0   132334.2825   476                   Cuts: 131     7456         
      0     0   132334.2825   472                    Cuts: 97     7467         
      0     0   132247.2781   468                    Cuts: 96     7478         
      0     0   131777.7312   466                    Cuts: 93     7490         
      0     0   131669.8217   466                    Cuts: 93     7493         
      0     0   131669.8217   467                    Cuts: 88     7494         
Repair heuristic found nothing.
      0     2   131669.8217   467                    Cuts: 21     7494         
Elapsed time = 15.72 sec. (6552.29 ticks, tree = 0.02 MB, solutions = 0)
    135    44   107805.6049   392                 125502.2895     8292         
    292   209    75714.3391   334                 125502.2895    10867         
    489   316    67929.3043   329                 125502.2895    11833         
    659   433    67868.8758   322                 125502.2895    13140         
    980   497    42915.2576   287                 125502.2895    14641         
   1247   680     7680.0584   287                 125502.2895    17372         
   1526   920      522.6501   257                 125502.2895    19057         
   1813  1054    40232.8723   260                 125502.2895    19302         
   2191  1419     1113.2715   238                 125502.2895    19835         
   3933  3101    13342.9828   195                 125502.2895    20358         
Elapsed time = 28.89 sec. (9662.62 ticks, tree = 29.72 MB, solutions = 3)
*  3939  2696      integral     0    40775.9279   125502.2895    20224  207.79%
   5004   635    63710.5013   331    40775.9279   125502.2895    22682  207.79%
   5925  1430    43767.7145   290    40775.9279   118622.4799    31825  190.91%
   6127  1975    infeasible          40775.9279    55688.9023    43081   36.57%
   6181     2    39598.7074   127    40775.9279    52694.6695    44348   29.23%

GUB cover cuts applied:  1
Clique cuts applied:  1
Cover cuts applied:  5
Implied bound cuts applied:  7
Flow cuts applied:  271
Mixed integer rounding cuts applied:  27
Gomory fractional cuts applied:  75

Root node processing (before b&c):
  Real time             =   15.11 sec. (6497.30 ticks)
Parallel b&c, 12 threads:
  Real time             =   33.30 sec. (11902.63 ticks)
  Sync time (average)   =    2.15 sec.
  Wait time (average)   =    0.03 sec.
                          ------------
Total (root+branch&cut) =   48.41 sec. (18399.92 ticks)

Solution pool: 7 solutions saved.

MIP - Integer optimal solution:  Objective =  4.0775927850e+04
Solution time =   48.41 sec.  Iterations = 44499  Nodes = 6191
Deterministic time = 18400.08 ticks  (380.11 ticks/sec)

CPLEX> Incumbent solution written to file 'C:\Users\Luke\Desktop\test919\logs\tmpxfguj4i4.cplex.sol'.
CPLEX> Exporting results... 
